Route #1: 0 5 17 40 18 29 16 7 0
Route #2: 0 19 32 13 41 37 34 21 6 0
Route #3: 0 4 8 22 38 9 0
Route #4: 0 23 42 30 0
Route #5: 0 11 10 26 24 39 14 36 2 0
Route #6: 0 35 27 31 43 33 15 0
Route #7: 0 20 25 28 3 12 1 0
Cost 950:
